% File represents an instance of a Composite Structure problem to be solved by a CP framework
% Created on 2025-03-25 14:06:10.788
T = 34;
n = 9;
m = 12;
edges = [(1, 2),
(5, 4),
(8, 7),
(2, 3),
(5, 6),
(8, 9),
(1, 4),
(7, 4),
(5, 2),
(8, 5),
(3, 6),
(9, 6)];
counts = [|10, 12, 6, 2,
|8, 8, 6, 2,
|8, 6, 6, 2,
|8, 6, 6, 2,
|8, 10, 6, 2,
|6, 6, 4, 2,
|8, 6, 6, 4,
|10, 10, 6, 8,
|6, 10, 4, 6|];
